JulietBench/Juliet_Based_Patch_Bench/linux/CWE-189-Numeric-Errors/CVE_2010_2959_5b75c4973ce779520b9d1e392483207d6f842cde/cve2/solverbcm_rx_setup_Snippet.smt2
; benchmark generated from python API
(set-info :status unknown)
(declare-fun R () (_ BitVec 32))
(declare-fun rdi () (_ BitVec 64))
(declare-fun rsi () (_ BitVec 64))
(assert
 (let (($x221 (= (_ bv4294967274 32) R)))
 (let ((?x6 ((_ extract 31 0) rdi)))
 (let (($x119 (bvugt ?x6 (_ bv257 32))))
 (let (($x230 (and $x119 $x221)))
 (let (($x223 (= (_ bv0 32) R)))
 (let (($x10 (bvule ?x6 (_ bv257 32))))
 (let ((?x32 ((_ extract 15 0) rsi)))
 (let ((?x27 (bvand ?x32 (_ bv1024 16))))
 (let (($x14 (= (_ bv0 16) ?x27)))
 (let (($x229 (and $x14 $x10 $x223)))
 (let (($x74 (and (distinct (_ bv0 16) ?x27) true)))
 (let (($x89 (= (_ bv1 32) ?x6)))
 (let (($x228 (and $x89 $x74 $x10 $x223)))
 (let (($x97 (and (distinct (_ bv1 32) ?x6) true)))
 (let (($x227 (and $x97 $x74 $x10 $x221)))
 (let (($x231 (or $x227 $x228 $x229 $x230)))
 (let (($x234 (not $x231)))
 (let (($x225 (and $x14 $x223)))
 (let (($x224 (and $x89 $x74 $x223)))
 (let (($x222 (and $x97 $x74 $x221)))
 (let (($x226 (or $x222 $x224 $x225)))
 (let (($x233 (not $x226)))
 (let (($x235 (and $x233 $x234)))
 (let (($x232 (and $x226 $x231)))
 (let (($x236 (or $x232 $x235)))
 (not $x236)))))))))))))))))))))))))))
(check-sat)
